tsplp.lp
\ Model TSP0
\ LP format - for model browsing. Use MPS format to capture full model detail.
Maximize
  314.8586984664709 C0 + 473.7140487678194 C1 + 697.7248741445299 C2
   + 359.1169725869274 C3 + 391.2697279371355 C4 + 447.8001786511479 C5
Subject To
Bounds
 C0 <= 1
 C1 <= 1
 C2 <= 1
 C3 <= 1
 C4 <= 1
 C5 <= 1
End
