tsplp.sol
# Solution for model TSP0
# Objective value = 2.6844845005540310e+03
C0 1
C1 1
C2 1
C3 1
C4 1
C5 1
